NAME : POMORSKIE-n10
COMMENT : Auto generated by mgrVRP
TYPE : CVRP
DIMENSION : 10
EDGE_WEIGHT_TYPE : EUC_2D
CAPACITY : 200.0
NODE_COORD_SECTION
1 53.80351590988393 19.4837123720204
2 53.61405878673021 18.9863256464363
3 53.73050548207838 19.036204539910734
4 54.12049103276637 17.595140241417536
5 54.570500799340216 18.241415191059907
6 54.52622847666706 17.872223412633403
7 54.05748288407968 17.32044565442791
8 53.72955292526056 16.984481084034446
9 53.90358097717049 17.351745385051252
10 54.660380818407866 18.41728604456395
11 53.69781844666397 18.189990593210474
DEMAND_SECTION
1 0
2 48.0
3 52.0
4 38.0
5 53.0
6 44.0
7 38.0
8 45.0
9 34.0
10 50.0
11 31.0
DEPOT_SECTION
1
-1
EOF
